
%FILE DATA:	Soccer Computational Problem for MiniZinc Models	%
%AUTHOR:	Jack Wall	%
%CONTACT:  	116397063@umail.ucc.ie			%
%LAST UPDATE:	02/27/2020, 19:27:34						%
%DESCRIPTION: 	77 games played with 33 games left				%


n=11; %number of teams

%Games to play
games=[|1,4|2,7|2,10|10,9|10,4|5,11|10,7|5,9|7,6|11,2|11,6|6,3|6,10|3,1|10,1|5,6|11,3|6,9|3,2|9,3|9,11|7,3|8,4|2,5|2,8|1,11|10,11|2,11|8,6|8,3|1,5|3,11|2,9|];

%Initial points
iPoints=[17,20,17,21,14,19,26,21,21,25,10];

%POSITION CONSTRAINTS
% [|teamID, operator, position|...]
% operators index:
%  1 for =  operator
%  2 for >  operator
%  3 for >= operator
%  4 for <  operator
%  5 for <= operator
positionConstraints=[|10,1,1|7,2,1|9,5,3|8,1,4|4,1,5|];